DIMENSION: 96
80
79
38
35
34
39
51
55
52
53
50
69
70
59
62
68
67
66
64
63
61
60
57
56
58
54
47
48
46
49
43
42
41
40
44
45
11
33
1
30
31
37
36
32
29
2
3
4
5
6
8
7
9
10
12
13
14
15
16
17
20
18
19
21
25
24
23
22
26
27
28
65
96
94
95
93
92
78
85
86
77
76
75
71
72
73
74
84
87
88
89
90
91
83
82
81
